KEVLAR                                  
   1.00000000000000     
     9.4727525000000004    0.0000000000000000    0.0000000000000000
     0.0000000000000000   10.2426999999999992    0.0000000000000000
     0.0000000000000000    0.0000000000000000   13.1327999999999996
   C    H    O    N 
   112    80    16    16
Direct
  0.7562160337319142  0.1856402068685769  0.9930329921426528
  0.0062708989525772  0.9355612900610062  0.0064751652173829
  0.5064944648273334  0.9357208285424119  0.0070528602523281
  0.5064987005989325  0.4357103607828317  0.0070558880104578
  0.0063398863097487  0.4355528541709866  0.0063839266675974
  0.2562991334367143  0.1857689357150050  0.9930509652309163
  0.2562125865263866  0.6856393731183343  0.9930232437294584
  0.7561698074559730  0.6860871591135211  0.9934821111696154
  0.7536535848590262  0.7255815269242024  0.1023146970798168
  0.5038046729458892  0.4750773738902536  0.8981763375362852
  0.5037729647398327  0.9751059826326798  0.8981739421160276
  0.0030954028075713  0.4754851138261735  0.8976699356699717
  0.0030856287199030  0.9754755775608502  0.8977164347603791
  0.2538998260864417  0.2252027988827464  0.1018904664877348
  0.2538815209462612  0.7251597015367867  0.1018338572719047
  0.7539110211459069  0.2251418774525729  0.1018411253427938
  0.7846301309574981  0.3476708068218008  0.1394010183131661
  0.0341024234583360  0.0977870728176984  0.8598789931315219
  0.5344206234873228  0.0975435273556555  0.8603321050844428
  0.5344975491633535  0.5974851201001022  0.8603486168489931
  0.0340857263620405  0.5978003994385979  0.8598381941989416
  0.2846696545170597  0.3476335218109753  0.1396417541189071
  0.2846019553679943  0.8476965382060095  0.1393842497457426
  0.7846881309132335  0.8478141623513487  0.1401502296179895
  0.2846471378053779  0.3687276559216102  0.2436530926853728
  0.0342751711978667  0.6186547591798858  0.7557511823191405
  0.0342836604149156  0.1186495156922158  0.7557957972856084
  0.5344626374695607  0.1185395116661138  0.7563098565379771
  0.5344737265644419  0.6185353366793389  0.7563322203950389
  0.2846213051108477  0.8691268796127721  0.2432879314570846
  0.7845901678306350  0.3690897269836096  0.2433035396427670
  0.7845442621572648  0.8687896741446790  0.2441662117640840
  0.7528696437387159  0.2741800204972431  0.3142108387880406
  0.5020935235721024  0.0234713185699336  0.6856200831135281
  0.5021285312768700  0.5234870462712594  0.6856365504036478
  0.0019770273016719  0.0234578056101712  0.6852126435005801
  0.0020139735586020  0.5234446935566546  0.6851538138311187
  0.2524719016349017  0.2738271546115539  0.3144617828812126
  0.2529897828992151  0.7742074277305716  0.3141925387525012
  0.7521984837140796  0.7737838099054124  0.3148013306681551
  0.7180533458235802  0.6528397524440864  0.2772502144739676
  0.4679116443134132  0.4026177319287060  0.7231315499648687
  0.4678691387800298  0.9026194315080273  0.7231389246982159
  0.9677314172868925  0.4026739082659260  0.7227903178383235
  0.9676388367835927  0.9026871581015672  0.7228219242238870
  0.2182985733760927  0.1528414327724710  0.2770198594988417
  0.2186000769375883  0.6530751099411211  0.2769882920579370
  0.7185660097915384  0.1530470768239203  0.2769825231287130
  0.7223421568013009  0.1307541927684243  0.1724499556481001
  0.4721172384532398  0.8806074643465482  0.8276946542419791
  0.9717640108789546  0.3808220013997519  0.8273255791510731
  0.9717187789826901  0.8808209760782545  0.8273601160059280
  0.4721387578400426  0.3805957398400103  0.8276835563859515
  0.2222346623817121  0.1307851785600350  0.1724490775755161
  0.2222816268419751  0.6308036189420205  0.1724570580884543
  0.7220413197973539  0.6309535993439250  0.1726778460089824
  0.0004253431798080  0.5118282025661036  0.1847505910685977
  0.0004350047627451  0.0116431983970248  0.1849362911024111
  0.5003657593448630  0.0124146871658164  0.1850653858845762
  0.5003169423474245  0.5123845087834644  0.1850683033839678
  0.2501503891000200  0.2621114423154435  0.8149873980839154
  0.2501120372221010  0.7621092246135410  0.8149555121052304
  0.7501084720319321  0.2621061035960298  0.8149440700751561
  0.7498303045802334  0.7623513401167771  0.8152041966600070
  0.7839152283441624  0.1467638048468327  0.7676042656200884
  0.5342222907921405  0.8969942706294979  0.2322714505149532
  0.0344621326520334  0.3963810090385655  0.2317652324347857
  0.0345067579914458  0.8962262940927181  0.2321165071753948
  0.5342303856521959  0.3969778490281813  0.2322791251888290
  0.2840018106418218  0.1467266973512979  0.7677235279289303
  0.2839945108389667  0.6467613818870506  0.7676454328437733
  0.7838365033183063  0.6470132286778293  0.7680129518422074
  0.7763621672263515  0.6339845874959869  0.6632317448726203
  0.0267306027712177  0.8830789024945465  0.3368595222716941
  0.0267523814934731  0.3833392681651431  0.3364982751575120
  0.5264821666227101  0.3838934045198990  0.3369825686312836
  0.5264177997342019  0.8839088220103936  0.3369694060546326
  0.2763818423207445  0.1339039697684590  0.6629918869919625
  0.2763504913690052  0.6340126944432249  0.6628973690901460
  0.7763145297670969  0.1340184176275790  0.6628642874109208
  0.7439045120746860  0.2360770511503598  0.5995405457768871
  0.4939876276683657  0.9857343973824444  0.4004047358439324
  0.9940742861418133  0.4851914184154420  0.3998750644770635
  0.9943731781781048  0.9851005393412193  0.4001418156530241
  0.4940007247045646  0.4857264223217338  0.4004177190524107
  0.2440112530091644  0.2359137262068445  0.5996866727784174
  0.2439253021751319  0.7360658553184761  0.5995559100988243
  0.7439696291045333  0.7359096047276134  0.5998669211050942
  0.2107507400892818  0.8516954499475934  0.6468907974923594
  0.4611292083644259  0.1015561732048592  0.3532265725162764
  0.4611055373057029  0.6015234944781288  0.3532332949990169
  0.9613123985014788  0.1010123418201975  0.3530795991568176
  0.9610416837683922  0.6011354343077752  0.3529272983237062
  0.2108965590471962  0.3516189046141575  0.6469238091998222
  0.7107643449754976  0.3517108852906862  0.6468813579423659
  0.7107428828632918  0.8516505838563293  0.6470340160726185
  0.4648304095006746  0.1143207610969359  0.2481168751879369
  0.9647789706193712  0.1135893936406238  0.2479527585656089
  0.9647219710747835  0.6137448236055554  0.2478169855299114
  0.4647958183325605  0.6142889822734017  0.2481171386192892
  0.2145877863469008  0.3641468295445722  0.7520257318178242
  0.2144866869641630  0.8641456325823317  0.7520095443970565
  0.7145924876999167  0.3641618980163480  0.7519973642935747
  0.7144105981262852  0.8642751004337390  0.7521117061439125
  0.7508146035051781  0.3133213627944897  0.4232891514857540
  0.0005380865378586  0.5621073669124238  0.5760718686645461
  0.0005258994855480  0.0621585069876173  0.5761873712290433
  0.5004436093224897  0.0622831732234767  0.5766876328889159
  0.5005298057891029  0.5623903106914130  0.5767350513774230
  0.2506269724387709  0.3131915889531985  0.4234471943999940
  0.2508661408523001  0.8133294054111420  0.4232877494542136
  0.7505556414840635  0.8131509821736750  0.4237514551577397
  0.9946096321632397  0.6251236130335998  0.0547611670586492
  0.9947254124271198  0.1251150948914993  0.0550138895053833
  0.4947455497842235  0.1257263615616891  0.0550103763033663
  0.4947077415137692  0.6257090533829810  0.0550159806786569
  0.2450189841130008  0.3756714192693627  0.9449064465962199
  0.2448771054886059  0.8755632903327318  0.9449047144687647
  0.7448503057714355  0.3755505977541488  0.9448963251624546
  0.7448156917338518  0.8758205990279515  0.9451730711889962
  0.7510632872179006  0.1220727342625539  0.4701692149489992
  0.5005378931939186  0.8711402837522345  0.5295745509983220
  0.5007215964660040  0.3712443533382478  0.5296200864357165
  0.0009212857002234  0.8709661965367675  0.5295105623708528
  0.0008268232619555  0.3709533313169031  0.5292529885596097
  0.2510535324978871  0.1219828445940781  0.4702607943789283
  0.2511955285853703  0.6220806166202767  0.4701721777861918
  0.7508915767483220  0.6219358033740844  0.4704569171722741
  0.8094412171270143  0.9261411887593266  0.0887992028350938
  0.0587651129035844  0.6761902963091477  0.9111501512606122
  0.0588029043879293  0.1761628907580981  0.9111981531591014
  0.5589254401779705  0.1759723368031657  0.9116738124411583
  0.5590416648723259  0.6758885818161967  0.9117039634340994
  0.3090861146723244  0.4260713090741565  0.0882787366098057
  0.3088170179774758  0.9260446419053595  0.0878663964760344
  0.8088588954267162  0.4260298324863233  0.0878996061068748
  0.7014813863301176  0.0355804356898501  0.1436552523395335
  0.4514366227526235  0.7854657163710587  0.8566531952399474
  0.9512922575655688  0.2856777514741763  0.8563393842104712
  0.9511750117859022  0.7856888964756801  0.8563713933457087
  0.4514318442967926  0.2854568838166076  0.8566225468487284
  0.2014216257840043  0.0356614981731227  0.1435235845114318
  0.2014419838148585  0.5356280027533699  0.1436481043448451
  0.7014171394887042  0.5358474606398683  0.1436302998493670
  0.3134017048967662  0.5650969806533019  0.8132638047467724
  0.0637621826572686  0.8146643868526044  0.1862810641130484
  0.0637263235119102  0.3148389876586905  0.1859157409015735
  0.5636752234359802  0.3154113545369431  0.1865776509179270
  0.5636358950289030  0.8154235961926918  0.1865687975715591
  0.3133611092747516  0.0650815089398532  0.8133827742059537
  0.8132817940533833  0.0650797551888776  0.8132070562196086
  0.8131422180647687  0.5654184312913673  0.8137721351880509
  0.0491868505554570  0.7902618571619073  0.3707131003938449
  0.5490968582982412  0.2910488440338793  0.3707382447135832
  0.5488659164893909  0.7910352298143011  0.3707310003180010
  0.0491050262961123  0.2904987470762454  0.3703513593833950
  0.2988450300556545  0.0411163803519554  0.6290911914213471
  0.2988707185344214  0.5412469027620288  0.6289732805931901
  0.7988090320860942  0.0412552512247721  0.6289342325914350
  0.7988897432050451  0.5411618150506167  0.6294463973060028
  0.6792812539884615  0.4311361531588094  0.6002991469331134
  0.4295863972044620  0.1808799568982887  0.3998986822730424
  0.4295925706442346  0.6808389958267915  0.3999230877029551
  0.9297525403992601  0.1802571185155147  0.3998283876119532
  0.9293390245570495  0.6803123744157248  0.3996735769048010
  0.1793648800282772  0.4309733073437337  0.6002864394874392
  0.1792306686801838  0.9310988115090267  0.6003099452732140
  0.6792360256196920  0.9309598342097904  0.6003402521204279
  0.1879351484939262  0.4557827134362684  0.7858362559000254
  0.4383263094345033  0.2060749992169675  0.2144465772778965
  0.4383749049454962  0.7060584313184702  0.2144316415512425
  0.9383156129859970  0.2053194483348183  0.2142046192293292
  0.9380841561631058  0.7054227984595788  0.2140740621513926
  0.1878523127846006  0.9557737265598749  0.7858430634478746
  0.6881296263321952  0.4558382459032043  0.7858260643888092
  0.6878758968300683  0.9559907384507959  0.7858239044150961
  0.8096761824458689  0.4630084573536567  0.2731939117859437
  0.5595239959031930  0.7123774346362960  0.7262515903123786
  0.0596174464887040  0.2123892918626493  0.7256656553035795
  0.0595715405707161  0.7124092499427417  0.7256273751634532
  0.5595389467375451  0.2123661073628652  0.7262121015460448
  0.3096686028952017  0.4626306739692490  0.2736401964210780
  0.3096439447666192  0.9630628355648805  0.2731751090935185
  0.8098269294362662  0.9625525216432333  0.2742764353305365
  0.6927810636163583  0.5732093123984481  0.3276479657580279
  0.4425406973543719  0.3230324856699155  0.6727248317818409
  0.4424639443866653  0.8230262051296453  0.6727514702382867
  0.9424791942667180  0.3230059748057965  0.6724266827063862
  0.9423528522519105  0.8230258959214848  0.6724650204244634
  0.1929177850088028  0.0733185903297879  0.3274807235471066
  0.1932139347223211  0.5737018490286928  0.3276000082270572
  0.6931341197804790  0.0736729860617294  0.3275781610055221
  0.5098055174543176  0.3173156733952069  0.0302252015393796
  0.0099735747163751  0.3167617559257957  0.0282171196888114
  0.0098199895909401  0.8168250903598052  0.0284168276903164
  0.5097992369231680  0.8173243615704225  0.0302237467196039
  0.2586914334782564  0.0673447904718493  0.9700877952239096
  0.2586866674979005  0.5672624382396919  0.9700741550352016
  0.7587027877600117  0.0672620601529293  0.9700844638441902
  0.7586786341756370  0.5674827632807408  0.9712558725019329
  0.7508340002085273  0.4308789839006535  0.4480658089324142
  0.0011521561689781  0.6798221654579002  0.5516834418844845
  0.0012214176985603  0.1798827884170953  0.5517884821621549
  0.5012278546835197  0.1799092989019949  0.5519312115717452
  0.5011589779547538  0.6799967706786898  0.5520313885088456
  0.2508192517416528  0.4308142048247971  0.4480744014540938
  0.2508382339512593  0.9308793472266299  0.4480672230417822
  0.7509032204631836  0.9308115145169853  0.4482431556519567
  0.7511784689312024  0.2808061354729239  0.9211535027598077
  0.0012566735697609  0.0303368418044701  0.0786800453146182
  0.5011724409696603  0.0310103015120649  0.0788302188683440
  0.5011302662992787  0.5309923301759797  0.0788352242114736
  0.0012715681730570  0.5303972214763325  0.0785186451717362
  0.2513929909319190  0.2809124638096289  0.9211811070033782
  0.2512982069792163  0.7808216974535268  0.9211556501420296
  0.7510318374254141  0.7810450150624483  0.9214377932040384
  0.2454133918079437  0.7169627924406071  0.4939807452195406
  0.4950650078066290  0.4661955584529129  0.5059392911965549
  0.4949532465849717  0.9661041447865139  0.5059118348174972
  0.9951811039475918  0.4658390570525812  0.5054058146523188
  0.9953227456376755  0.9658347665216538  0.5056153813167069
  0.2453637341089497  0.2168483372394703  0.4941342511247891
  0.7453706767239870  0.2169616632985897  0.4939735703195127
  0.7453302936466004  0.7167946657004661  0.4943718218450062
 
  0.00000000E+00  0.00000000E+00  0.00000000E+00
  0.00000000E+00  0.00000000E+00  0.00000000E+00
  0.00000000E+00  0.00000000E+00  0.00000000E+00
  0.00000000E+00  0.00000000E+00  0.00000000E+00
  0.00000000E+00  0.00000000E+00  0.00000000E+00
  0.00000000E+00  0.00000000E+00  0.00000000E+00
  0.00000000E+00  0.00000000E+00  0.00000000E+00
  0.00000000E+00  0.00000000E+00  0.00000000E+00
  0.00000000E+00  0.00000000E+00  0.00000000E+00
  0.00000000E+00  0.00000000E+00  0.00000000E+00
  0.00000000E+00  0.00000000E+00  0.00000000E+00
  0.00000000E+00  0.00000000E+00  0.00000000E+00
  0.00000000E+00  0.00000000E+00  0.00000000E+00
  0.00000000E+00  0.00000000E+00  0.00000000E+00
  0.00000000E+00  0.00000000E+00  0.00000000E+00
  0.00000000E+00  0.00000000E+00  0.00000000E+00
  0.00000000E+00  0.00000000E+00  0.00000000E+00
  0.00000000E+00  0.00000000E+00  0.00000000E+00
  0.00000000E+00  0.00000000E+00  0.00000000E+00
  0.00000000E+00  0.00000000E+00  0.00000000E+00
  0.00000000E+00  0.00000000E+00  0.00000000E+00
  0.00000000E+00  0.00000000E+00  0.00000000E+00
  0.00000000E+00  0.00000000E+00  0.00000000E+00
  0.00000000E+00  0.00000000E+00  0.00000000E+00
  0.00000000E+00  0.00000000E+00  0.00000000E+00
  0.00000000E+00  0.00000000E+00  0.00000000E+00
  0.00000000E+00  0.00000000E+00  0.00000000E+00
  0.00000000E+00  0.00000000E+00  0.00000000E+00
  0.00000000E+00  0.00000000E+00  0.00000000E+00
  0.00000000E+00  0.00000000E+00  0.00000000E+00
  0.00000000E+00  0.00000000E+00  0.00000000E+00
  0.00000000E+00  0.00000000E+00  0.00000000E+00
  0.00000000E+00  0.00000000E+00  0.00000000E+00
  0.00000000E+00  0.00000000E+00  0.00000000E+00
  0.00000000E+00  0.00000000E+00  0.00000000E+00
  0.00000000E+00  0.00000000E+00  0.00000000E+00
  0.00000000E+00  0.00000000E+00  0.00000000E+00
  0.00000000E+00  0.00000000E+00  0.00000000E+00
  0.00000000E+00  0.00000000E+00  0.00000000E+00
  0.00000000E+00  0.00000000E+00  0.00000000E+00
  0.00000000E+00  0.00000000E+00  0.00000000E+00
  0.00000000E+00  0.00000000E+00  0.00000000E+00
  0.00000000E+00  0.00000000E+00  0.00000000E+00
  0.00000000E+00  0.00000000E+00  0.00000000E+00
  0.00000000E+00  0.00000000E+00  0.00000000E+00
  0.00000000E+00  0.00000000E+00  0.00000000E+00
  0.00000000E+00  0.00000000E+00  0.00000000E+00
  0.00000000E+00  0.00000000E+00  0.00000000E+00
  0.00000000E+00  0.00000000E+00  0.00000000E+00
  0.00000000E+00  0.00000000E+00  0.00000000E+00
  0.00000000E+00  0.00000000E+00  0.00000000E+00
  0.00000000E+00  0.00000000E+00  0.00000000E+00
  0.00000000E+00  0.00000000E+00  0.00000000E+00
  0.00000000E+00  0.00000000E+00  0.00000000E+00
  0.00000000E+00  0.00000000E+00  0.00000000E+00
  0.00000000E+00  0.00000000E+00  0.00000000E+00
  0.00000000E+00  0.00000000E+00  0.00000000E+00
  0.00000000E+00  0.00000000E+00  0.00000000E+00
  0.00000000E+00  0.00000000E+00  0.00000000E+00
  0.00000000E+00  0.00000000E+00  0.00000000E+00
  0.00000000E+00  0.00000000E+00  0.00000000E+00
  0.00000000E+00  0.00000000E+00  0.00000000E+00
  0.00000000E+00  0.00000000E+00  0.00000000E+00
  0.00000000E+00  0.00000000E+00  0.00000000E+00
  0.00000000E+00  0.00000000E+00  0.00000000E+00
  0.00000000E+00  0.00000000E+00  0.00000000E+00
  0.00000000E+00  0.00000000E+00  0.00000000E+00
  0.00000000E+00  0.00000000E+00  0.00000000E+00
  0.00000000E+00  0.00000000E+00  0.00000000E+00
  0.00000000E+00  0.00000000E+00  0.00000000E+00
  0.00000000E+00  0.00000000E+00  0.00000000E+00
  0.00000000E+00  0.00000000E+00  0.00000000E+00
  0.00000000E+00  0.00000000E+00  0.00000000E+00
  0.00000000E+00  0.00000000E+00  0.00000000E+00
  0.00000000E+00  0.00000000E+00  0.00000000E+00
  0.00000000E+00  0.00000000E+00  0.00000000E+00
  0.00000000E+00  0.00000000E+00  0.00000000E+00
  0.00000000E+00  0.00000000E+00  0.00000000E+00
  0.00000000E+00  0.00000000E+00  0.00000000E+00
  0.00000000E+00  0.00000000E+00  0.00000000E+00
  0.00000000E+00  0.00000000E+00  0.00000000E+00
  0.00000000E+00  0.00000000E+00  0.00000000E+00
  0.00000000E+00  0.00000000E+00  0.00000000E+00
  0.00000000E+00  0.00000000E+00  0.00000000E+00
  0.00000000E+00  0.00000000E+00  0.00000000E+00
  0.00000000E+00  0.00000000E+00  0.00000000E+00
  0.00000000E+00  0.00000000E+00  0.00000000E+00
  0.00000000E+00  0.00000000E+00  0.00000000E+00
  0.00000000E+00  0.00000000E+00  0.00000000E+00
  0.00000000E+00  0.00000000E+00  0.00000000E+00
  0.00000000E+00  0.00000000E+00  0.00000000E+00
  0.00000000E+00  0.00000000E+00  0.00000000E+00
  0.00000000E+00  0.00000000E+00  0.00000000E+00
  0.00000000E+00  0.00000000E+00  0.00000000E+00
  0.00000000E+00  0.00000000E+00  0.00000000E+00
  0.00000000E+00  0.00000000E+00  0.00000000E+00
  0.00000000E+00  0.00000000E+00  0.00000000E+00
  0.00000000E+00  0.00000000E+00  0.00000000E+00
  0.00000000E+00  0.00000000E+00  0.00000000E+00
  0.00000000E+00  0.00000000E+00  0.00000000E+00
  0.00000000E+00  0.00000000E+00  0.00000000E+00
  0.00000000E+00  0.00000000E+00  0.00000000E+00
  0.00000000E+00  0.00000000E+00  0.00000000E+00
  0.00000000E+00  0.00000000E+00  0.00000000E+00
  0.00000000E+00  0.00000000E+00  0.00000000E+00
  0.00000000E+00  0.00000000E+00  0.00000000E+00
  0.00000000E+00  0.00000000E+00  0.00000000E+00
  0.00000000E+00  0.00000000E+00  0.00000000E+00
  0.00000000E+00  0.00000000E+00  0.00000000E+00
  0.00000000E+00  0.00000000E+00  0.00000000E+00
  0.00000000E+00  0.00000000E+00  0.00000000E+00
  0.00000000E+00  0.00000000E+00  0.00000000E+00
  0.00000000E+00  0.00000000E+00  0.00000000E+00
  0.00000000E+00  0.00000000E+00  0.00000000E+00
  0.00000000E+00  0.00000000E+00  0.00000000E+00
  0.00000000E+00  0.00000000E+00  0.00000000E+00
  0.00000000E+00  0.00000000E+00  0.00000000E+00
  0.00000000E+00  0.00000000E+00  0.00000000E+00
  0.00000000E+00  0.00000000E+00  0.00000000E+00
  0.00000000E+00  0.00000000E+00  0.00000000E+00
  0.00000000E+00  0.00000000E+00  0.00000000E+00
  0.00000000E+00  0.00000000E+00  0.00000000E+00
  0.00000000E+00  0.00000000E+00  0.00000000E+00
  0.00000000E+00  0.00000000E+00  0.00000000E+00
  0.00000000E+00  0.00000000E+00  0.00000000E+00
  0.00000000E+00  0.00000000E+00  0.00000000E+00
  0.00000000E+00  0.00000000E+00  0.00000000E+00
  0.00000000E+00  0.00000000E+00  0.00000000E+00
  0.00000000E+00  0.00000000E+00  0.00000000E+00
  0.00000000E+00  0.00000000E+00  0.00000000E+00
  0.00000000E+00  0.00000000E+00  0.00000000E+00
  0.00000000E+00  0.00000000E+00  0.00000000E+00
  0.00000000E+00  0.00000000E+00  0.00000000E+00
  0.00000000E+00  0.00000000E+00  0.00000000E+00
  0.00000000E+00  0.00000000E+00  0.00000000E+00
  0.00000000E+00  0.00000000E+00  0.00000000E+00
  0.00000000E+00  0.00000000E+00  0.00000000E+00
  0.00000000E+00  0.00000000E+00  0.00000000E+00
  0.00000000E+00  0.00000000E+00  0.00000000E+00
  0.00000000E+00  0.00000000E+00  0.00000000E+00
  0.00000000E+00  0.00000000E+00  0.00000000E+00
  0.00000000E+00  0.00000000E+00  0.00000000E+00
  0.00000000E+00  0.00000000E+00  0.00000000E+00
  0.00000000E+00  0.00000000E+00  0.00000000E+00
  0.00000000E+00  0.00000000E+00  0.00000000E+00
  0.00000000E+00  0.00000000E+00  0.00000000E+00
  0.00000000E+00  0.00000000E+00  0.00000000E+00
  0.00000000E+00  0.00000000E+00  0.00000000E+00
  0.00000000E+00  0.00000000E+00  0.00000000E+00
  0.00000000E+00  0.00000000E+00  0.00000000E+00
  0.00000000E+00  0.00000000E+00  0.00000000E+00
  0.00000000E+00  0.00000000E+00  0.00000000E+00
  0.00000000E+00  0.00000000E+00  0.00000000E+00
  0.00000000E+00  0.00000000E+00  0.00000000E+00
  0.00000000E+00  0.00000000E+00  0.00000000E+00
  0.00000000E+00  0.00000000E+00  0.00000000E+00
  0.00000000E+00  0.00000000E+00  0.00000000E+00
  0.00000000E+00  0.00000000E+00  0.00000000E+00
  0.00000000E+00  0.00000000E+00  0.00000000E+00
  0.00000000E+00  0.00000000E+00  0.00000000E+00
  0.00000000E+00  0.00000000E+00  0.00000000E+00
  0.00000000E+00  0.00000000E+00  0.00000000E+00
  0.00000000E+00  0.00000000E+00  0.00000000E+00
  0.00000000E+00  0.00000000E+00  0.00000000E+00
  0.00000000E+00  0.00000000E+00  0.00000000E+00
  0.00000000E+00  0.00000000E+00  0.00000000E+00
  0.00000000E+00  0.00000000E+00  0.00000000E+00
  0.00000000E+00  0.00000000E+00  0.00000000E+00
  0.00000000E+00  0.00000000E+00  0.00000000E+00
  0.00000000E+00  0.00000000E+00  0.00000000E+00
  0.00000000E+00  0.00000000E+00  0.00000000E+00
  0.00000000E+00  0.00000000E+00  0.00000000E+00
  0.00000000E+00  0.00000000E+00  0.00000000E+00
  0.00000000E+00  0.00000000E+00  0.00000000E+00
  0.00000000E+00  0.00000000E+00  0.00000000E+00
  0.00000000E+00  0.00000000E+00  0.00000000E+00
  0.00000000E+00  0.00000000E+00  0.00000000E+00
  0.00000000E+00  0.00000000E+00  0.00000000E+00
  0.00000000E+00  0.00000000E+00  0.00000000E+00
  0.00000000E+00  0.00000000E+00  0.00000000E+00
  0.00000000E+00  0.00000000E+00  0.00000000E+00
  0.00000000E+00  0.00000000E+00  0.00000000E+00
  0.00000000E+00  0.00000000E+00  0.00000000E+00
  0.00000000E+00  0.00000000E+00  0.00000000E+00
  0.00000000E+00  0.00000000E+00  0.00000000E+00
  0.00000000E+00  0.00000000E+00  0.00000000E+00
  0.00000000E+00  0.00000000E+00  0.00000000E+00
  0.00000000E+00  0.00000000E+00  0.00000000E+00
  0.00000000E+00  0.00000000E+00  0.00000000E+00
  0.00000000E+00  0.00000000E+00  0.00000000E+00
  0.00000000E+00  0.00000000E+00  0.00000000E+00
  0.00000000E+00  0.00000000E+00  0.00000000E+00
  0.00000000E+00  0.00000000E+00  0.00000000E+00
  0.00000000E+00  0.00000000E+00  0.00000000E+00
  0.00000000E+00  0.00000000E+00  0.00000000E+00
  0.00000000E+00  0.00000000E+00  0.00000000E+00
  0.00000000E+00  0.00000000E+00  0.00000000E+00
  0.00000000E+00  0.00000000E+00  0.00000000E+00
  0.00000000E+00  0.00000000E+00  0.00000000E+00
  0.00000000E+00  0.00000000E+00  0.00000000E+00
  0.00000000E+00  0.00000000E+00  0.00000000E+00
  0.00000000E+00  0.00000000E+00  0.00000000E+00
  0.00000000E+00  0.00000000E+00  0.00000000E+00
  0.00000000E+00  0.00000000E+00  0.00000000E+00
  0.00000000E+00  0.00000000E+00  0.00000000E+00
  0.00000000E+00  0.00000000E+00  0.00000000E+00
  0.00000000E+00  0.00000000E+00  0.00000000E+00
  0.00000000E+00  0.00000000E+00  0.00000000E+00
  0.00000000E+00  0.00000000E+00  0.00000000E+00
  0.00000000E+00  0.00000000E+00  0.00000000E+00
  0.00000000E+00  0.00000000E+00  0.00000000E+00
  0.00000000E+00  0.00000000E+00  0.00000000E+00
  0.00000000E+00  0.00000000E+00  0.00000000E+00
  0.00000000E+00  0.00000000E+00  0.00000000E+00
  0.00000000E+00  0.00000000E+00  0.00000000E+00
  0.00000000E+00  0.00000000E+00  0.00000000E+00
  0.00000000E+00  0.00000000E+00  0.00000000E+00
  0.00000000E+00  0.00000000E+00  0.00000000E+00
  0.00000000E+00  0.00000000E+00  0.00000000E+00
  0.00000000E+00  0.00000000E+00  0.00000000E+00
  0.00000000E+00  0.00000000E+00  0.00000000E+00
  0.00000000E+00  0.00000000E+00  0.00000000E+00
  0.00000000E+00  0.00000000E+00  0.00000000E+00
  0.00000000E+00  0.00000000E+00  0.00000000E+00
